
Gurobi 8.1.1 (mac64, Matlab) logging started Tue Mar 17 15:04:58 2020


Gurobi 8.1.1 (mac64, Matlab) logging started Tue Mar 17 15:04:58 2020


Gurobi 8.1.1 (mac64, Matlab) logging started Tue Mar 17 15:04:59 2020


Gurobi 8.1.1 (mac64, Matlab) logging started Tue Mar 17 15:05:00 2020


Gurobi 8.1.1 (mac64, Matlab) logging started Tue Mar 17 15:05:00 2020


Gurobi 8.1.1 (mac64, Matlab) logging started Tue Mar 17 15:05:01 2020


Gurobi 8.1.1 (mac64, Matlab) logging started Tue Mar 17 15:05:01 2020


Gurobi 8.1.1 (mac64, Matlab) logging started Tue Mar 17 15:05:02 2020


Gurobi 8.1.1 (mac64, Matlab) logging started Tue Mar 17 15:05:03 2020


Gurobi 8.1.1 (mac64, Matlab) logging started Tue Mar 17 15:05:03 2020


Gurobi 8.1.1 (mac64, Matlab) logging started Tue Mar 17 15:05:04 2020

